\ENCODING=ISO-8859-1
\Problem name: IloCplex

Minimize
 obj1: 142000 x0_0 + 132000 x0_1 + 104000 x0_2 + 110000 x1_0 + 104000 x1_1
       + 93000 x1_2 + 54000 x2_0 + 59000 x2_1 + 51000 x2_2 + 62000 x3_0
       + 62000 x3_1 + 59000 x3_2 + 80000 x4_0 + 75000 x4_1 + 67000 x4_2
       + 20000 x5_0 + 19000 x5_1 + 22000 x5_2 - 20000000
Subject To
 c_1(0): x0_0 + x0_1 + x0_2  = 1
 c_1(1): x1_0 + x1_1 + x1_2  = 1
 c_1(2): x2_0 + x2_1 + x2_2  = 1
 c_1(3): x3_0 + x3_1 + x3_2  = 1
 c_1(4): x4_0 + x4_1 + x4_2  = 1
 c_1(5): x5_0 + x5_1 + x5_2  = 1
Bounds
 0 <= x0_0 <= 1
 0 <= x0_1 <= 1
 0 <= x0_2 <= 1
 0 <= x1_0 <= 1
 0 <= x1_1 <= 1
 0 <= x1_2 <= 1
 0 <= x2_0 <= 1
 0 <= x2_1 <= 1
 0 <= x2_2 <= 1
 0 <= x3_0 <= 1
 0 <= x3_1 <= 1
 0 <= x3_2 <= 1
 0 <= x4_0 <= 1
 0 <= x4_1 <= 1
 0 <= x4_2 <= 1
 0 <= x5_0 <= 1
 0 <= x5_1 <= 1
 0 <= x5_2 <= 1
Binaries
 x0_0  x0_1  x0_2  x1_0  x1_1  x1_2  x2_0  x2_1  x2_2  x3_0  x3_1  x3_2  x4_0 
 x4_1  x4_2  x5_0  x5_1  x5_2 
End
